p tdp 118 117
39 106
22 9
59 58
24 11
90 117
108 98
37 14
78 24
54 8
24 110
81 34
97 43
66 2
80 67
34 86
46 111
8 38
44 64
32 103
35 67
48 65
30 87
25 74
31 102
95 7
93 62
94 72
20 68
61 33
115 29
112 23
51 24
55 113
41 55
118 66
31 101
68 74
84 5
36 66
116 67
47 68
106 15
24 60
114 70
98 65
92 91
117 6
82 75
100 72
21 83
33 13
70 99
70 101
21 85
5 1
50 92
79 62
115 4
40 27
65 45
71 73
82 66
69 92
89 32
30 93
27 97
49 28
104 70
72 71
57 88
17 23
54 21
50 30
22 93
76 109
48 9
5 57
1 104
12 6
107 16
95 49
116 105
76 18
96 26
19 56
9 67
52 3
77 6
96 77
16 60
34 21
47 15
52 42
64 73
111 16
8 56
100 41
7 47
76 58
40 29
10 53
37 17
68 110
21 104
54 42
53 59
40 28
63 81
89 77
33 17
109 106
22 94
75 32
38 61
110 75
9 6
84 87
